db/inputs/1370693339393327142534818133220045543.smt2
(set-logic QF_FP)
(declare-const x0 (_ FloatingPoint 8 24))
(declare-const x1 (_ FloatingPoint 8 24))
(declare-const x2 (_ FloatingPoint 8 24))
(declare-const x3 (_ FloatingPoint 8 24))
(declare-const x4 (_ FloatingPoint 8 24))
(declare-const x5 (_ FloatingPoint 8 24))
(declare-const x6 (_ FloatingPoint 8 24))
(declare-const x7 (_ FloatingPoint 8 24))
(declare-const x8 (_ FloatingPoint 8 24))
(declare-const x9 (_ FloatingPoint 8 24))
(declare-const x10 (_ FloatingPoint 8 24))
(declare-const x11 (_ FloatingPoint 8 24))
(declare-const x12 (_ FloatingPoint 8 24))
(declare-const x13 (_ FloatingPoint 8 24))
(declare-const x14 (_ FloatingPoint 8 24))
(assert (fp.lt (fp.mul RNE (fp.mul RNE (fp.add RNE x11 x7) (fp.neg x3)) (fp.add RNE (fp.mul RNE x13 x11) (fp.div RNE x5 x9))) (fp.mul RNE (fp.neg (fp.add RNE x7 x11)) (fp.div RNE (fp.div RNE x8 x13) (fp.add RNE x3 x7)))))
(check-sat)
