db/data/1370693339393327142534818133220045543.z3.out
sat
-------------------
18.193565998
